% File represents an instance of a Composite Structure problem to be solved by a CP framework
% Created on 2025-03-26 10:41:19.278
T = 50;
n = 9;
m = 12;
edges = [(1, 2),
(4, 5),
(7, 8),
(2, 3),
(5, 6),
(8, 9),
(4, 1),
(7, 4),
(5, 2),
(8, 5),
(6, 3),
(9, 6)];
counts = [|2, 18, 2, 16,
|2, 16, 2, 16,
|2, 12, 2, 14,
|2, 18, 2, 22,
|2, 18, 2, 20,
|2, 16, 2, 16,
|4, 18, 4, 24,
|4, 18, 4, 22,
|2, 18, 2, 20|];
